  Job Started  at 16:53.09 21st November   2023

  Number of CPUs =     4

  Host name      = nid001027

  Total number of configurations input =      1

*  Input for Configuration =   1                                               *

  Formula = Tc12Mn12Li12O48

  Number of irreducible atoms/shells =     144

  Total number atoms/shells =     144

  Dimensionality = 3               :  Bulk

  Cartesian lattice vectors (Angstroms) :

        8.872874    0.000000    0.000000
        0.000000    9.432501    0.000000
        0.000000    0.000000    8.565761

  Cell parameters (Angstroms/Degrees):

  a =       8.8729    alpha =  90.0000
  b =       9.4325    beta  =  90.0000
  c =       8.5658    gamma =  90.0000

  Initial cell volume =         716.897611 Angs**3

  Temperature of configuration =   0.00     K

  Pressure of configuration =         0.000 GPa

  Fractional coordinates of asymmetric unit :

   No.  Atomic       x           y          z         Charge      Occupancy
        Label      (Frac)      (Frac)     (Frac)        (e)         (Frac)
      1 Tc    c    0.615088 *  0.750234 *  0.095228 *   1.97100    1.000000
      2 Tc    c    0.327812 *  0.774863 *  0.591821 *   1.97100    1.000000
      3 Tc    c    0.615638 *  0.750984 *  0.427791 *   1.97100    1.000000
      4 Tc    c    0.123381 *  0.033823 *  0.760535 *   1.97100    1.000000
      5 Tc    c    0.591588 *  0.725809 *  0.761582 *   1.97100    1.000000
      6 Tc    c    0.319339 *  0.286572 *  0.265297 *   1.97100    1.000000
      7 Tc    c    0.608533 *  0.250163 *  0.430209 *   1.97100    1.000000
      8 Tc    c    0.609566 *  0.247590 *  0.094671 *   1.97100    1.000000
      9 Tc    c    0.818526 *  0.020646 *  0.258872 *   1.97100    1.000000
     10 Tc    c    0.322369 *  0.296777 *  0.599599 *   1.97100    1.000000
     11 Tc    c    0.321532 *  0.782322 *  0.260384 *   1.97100    1.000000
     12 Tc    c    0.326510 *  0.776024 *  0.928928 *   1.97100    1.000000
     13 Mn    c    0.826116 *  0.489673 *  0.592992 *   4.00000    1.000000
     14 Mn    c    0.827105 *  0.487722 *  0.929217 *   4.00000    1.000000
     15 Mn    c    0.095068 *  0.049991 *  0.423849 *   4.00000    1.000000
     16 Mn    c    0.094364 *  0.049547 *  0.091808 *   4.00000    1.000000
     17 Mn    c    0.100191 *  0.533702 *  0.426935 *   4.00000    1.000000
     18 Mn    c    0.103281 *  0.527874 *  0.095337 *   4.00000    1.000000
     19 Mn    c    0.823859 *  0.999293 *  0.924847 *   4.00000    1.000000
     20 Mn    c    0.322081 *  0.289322 *  0.923284 *   4.00000    1.000000
     21 Mn    c    0.601864 *  0.259373 *  0.762318 *   4.00000    1.000000
     22 Mn    c    0.825396 *  0.001305 *  0.593752 *   4.00000    1.000000
     23 Mn    c    0.108336 *  0.537717 *  0.760818 *   4.00000    1.000000
     24 Mn    c    0.826925 *  0.481198 *  0.260712 *   4.00000    1.000000
     25 Li    c    0.041228 *  0.790693 *  0.983089 *   1.00000    1.000000
     26 Li    c    0.378172 *  0.045651 *  0.101848 *   1.00000    1.000000
     27 Li    c    0.541009 *  0.975329 *  0.268595 *   1.00000    1.000000
     28 Li    c    0.457253 *  0.533288 *  0.085443 *   1.00000    1.000000
     29 Li    c    0.532003 *  0.986336 *  0.632661 *   1.00000    1.000000
     30 Li    c    0.878365 *  0.746371 *  0.756245 *   1.00000    1.000000
     31 Li    c    0.464337 *  0.532706 *  0.424045 *   1.00000    1.000000
     32 Li    c    0.042148 *  0.794185 *  0.539428 *   1.00000    1.000000
     33 Li    c    0.524679 *  0.983761 *  0.905639 *   1.00000    1.000000
     34 Li    c    0.952169 *  0.244449 *  0.764519 *   1.00000    1.000000
     35 Li    c    0.927822 *  0.779673 *  0.260651 *   1.00000    1.000000
     36 Li    c    0.377205 *  0.045807 *  0.445294 *   1.00000    1.000000
     37 O     c    0.995709 *  0.142628 *  0.257678 *   0.51300    1.000000
     38 O     c    0.421318 *  0.365883 *  0.090892 *   0.51300    1.000000
     39 O     c    0.497337 *  0.152674 *  0.259881 *   0.51300    1.000000
     40 O     c    0.939655 *  0.399087 *  0.091559 *   0.51300    1.000000
     41 O     c    0.231240 *  0.188635 *  0.077895 *   0.51300    1.000000
     42 O     c    0.201394 *  0.452779 *  0.263619 *   0.51300    1.000000
     43 O     c    0.707734 *  0.075322 *  0.077321 *   0.51300    1.000000
     44 O     c    0.716277 *  0.326460 *  0.260378 *   0.51300    1.000000
     45 O     c    0.988784 *  0.613426 *  0.258920 *   0.51300    1.000000
     46 O     c    0.437755 *  0.877015 *  0.095509 *   0.51300    1.000000
     47 O     c    0.494680 *  0.657463 *  0.260055 *   0.51300    1.000000
     48 O     c    0.933978 *  0.913483 *  0.090581 *   0.51300    1.000000
     49 O     c    0.210638 *  0.687794 *  0.093490 *   0.51300    1.000000
     50 O     c    0.197776 *  0.961210 *  0.256828 *   0.51300    1.000000
     51 O     c    0.726992 *  0.569943 *  0.095213 *   0.51300    1.000000
     52 O     c    0.718990 *  0.841568 *  0.261055 *   0.51300    1.000000
     53 O     c    0.988512 *  0.129291 *  0.591979 *   0.51300    1.000000
     54 O     c    0.430347 *  0.366735 *  0.424646 *   0.51300    1.000000
     55 O     c    0.500450 *  0.164665 *  0.604461 *   0.51300    1.000000
     56 O     c    0.939373 *  0.401197 *  0.431093 *   0.51300    1.000000
     57 O     c    0.232170 *  0.186655 *  0.436571 *   0.51300    1.000000
     58 O     c    0.204857 *  0.462106 *  0.592512 *   0.51300    1.000000
     59 O     c    0.711119 *  0.077330 *  0.440271 *   0.51300    1.000000
     60 O     c    0.709950 *  0.338840 *  0.608146 *   0.51300    1.000000
[...]
     69 O     c    0.985374 *  0.127824 *  0.927250 *   0.51300    1.000000
     70 O     c    0.436266 *  0.385758 *  0.770359 *   0.51300    1.000000
     71 O     c    0.492647 *  0.164193 *  0.919232 *   0.51300    1.000000
     72 O     c    0.942329 *  0.416006 *  0.760170 *   0.51300    1.000000
     73 O     c    0.209892 *  0.212005 *  0.768467 *   0.51300    1.000000
     74 O     c    0.204039 *  0.449456 *  0.926930 *   0.51300    1.000000
     75 O     c    0.727400 *  0.096017 *  0.760440 *   0.51300    1.000000
     76 O     c    0.715161 *  0.333075 *  0.916597 *   0.51300    1.000000
     77 O     c    0.993274 *  0.616213 *  0.927731 *   0.51300    1.000000
     78 O     c    0.426649 *  0.872908 *  0.760661 *   0.51300    1.000000
     79 O     c    0.497423 *  0.652723 *  0.936289 *   0.51300    1.000000
     80 O     c    0.933170 *  0.915985 *  0.759039 *   0.51300    1.000000
     81 O     c    0.200461 *  0.706250 *  0.761631 *   0.51300    1.000000
     82 O     c    0.195083 *  0.940585 *  0.946444 *   0.51300    1.000000
     83 O     c    0.748780 *  0.588371 *  0.762508 *   0.51300    1.000000
     84 O     c    0.705902    0.844041    0.916685     0.51300    1.000000
     85 Tc    s    0.617809 *  0.749751 *  0.094974 *   1.02900    1.000000
     86 Tc    s    0.324616 *  0.774903 *  0.591524 *   1.02900    1.000000
     87 Tc    s    0.618218 *  0.750472 *  0.427832 *   1.02900    1.000000
     88 Tc    s    0.124330 *  0.033169 *  0.760253 *   1.02900    1.000000
     89 Tc    s    0.595450 *  0.726475 *  0.761290 *   1.02900    1.000000
     90 Tc    s    0.316040 *  0.285309 *  0.263849 *   1.02900    1.000000
     91 Tc    s    0.610534 *  0.251181 *  0.430196 *   1.02900    1.000000
     92 Tc    s    0.610612 *  0.249376 *  0.093841 *   1.02900    1.000000
     93 Tc    s    0.817376 *  0.021130 *  0.258754 *   1.02900    1.000000
     94 Tc    s    0.320136 *  0.296496 *  0.599134 *   1.02900    1.000000
     95 Tc    s    0.317869 *  0.782730 *  0.260256 *   1.02900    1.000000
     96 Tc    s    0.323635 *  0.776117 *  0.929438 *   1.02900    1.000000
     97 O     s    0.003508 *  0.111757 *  0.257397 *  -2.51300    1.000000
     98 O     s    0.413786 *  0.353196 *  0.084571 *  -2.51300    1.000000
     99 O     s    0.500848 *  0.160493 *  0.258333 *  -2.51300    1.000000
    100 O     s    0.935169 *  0.431341 *  0.090802 *  -2.51300    1.000000
    101 O     s    0.232610 *  0.183616 *  0.072705 *  -2.51300    1.000000
    102 O     s    0.186060 *  0.456830 *  0.262657 *  -2.51300    1.000000
    103 O     s    0.721657 *  0.077067 *  0.074433 *  -2.51300    1.000000
    104 O     s    0.713316 *  0.336829 *  0.259752 *  -2.51300    1.000000
    105 O     s    0.990383 *  0.595078 *  0.260201 *  -2.51300    1.000000
    106 O     s    0.433962 *  0.869764 *  0.096791 *  -2.51300    1.000000
    107 O     s    0.495516 *  0.671222 *  0.260259 *  -2.51300    1.000000
    108 O     s    0.936833 *  0.931012 *  0.083534 *  -2.51300    1.000000
    109 O     s    0.209593 *  0.679886 *  0.091339 *  -2.51300    1.000000
    110 O     s    0.186828 *  0.968273 *  0.255990 *  -2.51300    1.000000
    111 O     s    0.741967 *  0.563885 *  0.093232 *  -2.51300    1.000000
    112 O     s    0.710915 *  0.841145 *  0.261042 *  -2.51300    1.000000
    113 O     s    0.987819 *  0.105283 *  0.588288 *  -2.51300    1.000000
    114 O     s    0.426071 *  0.355435 *  0.424475 *  -2.51300    1.000000
    115 O     s    0.509117 *  0.178416 *  0.608809 *  -2.51300    1.000000
    116 O     s    0.933908 *  0.433409 *  0.431528 *  -2.51300    1.000000
    117 O     s    0.230181 *  0.179008 *  0.433706 *  -2.51300    1.000000
    118 O     s    0.188857 *  0.464831 *  0.593801 *  -2.51300    1.000000
    119 O     s    0.725156 *  0.077708 *  0.443159 *  -2.51300    1.000000
    120 O     s    0.706575 *  0.346014 *  0.614635 *  -2.51300    1.000000
    121 O     s    0.991403 *  0.603557 *  0.595830 *  -2.51300    1.000000
    122 O     s    0.434121 *  0.869346 *  0.424060 *  -2.51300    1.000000
    123 O     s    0.500855 *  0.672073 *  0.584832 *  -2.51300    1.000000
    124 O     s    0.939013 *  0.932433 *  0.435084 *  -2.51300    1.000000
    125 O     s    0.205442 *  0.686793 *  0.428070 *  -2.51300    1.000000
    126 O     s    0.189279 *  0.949601 *  0.570960 *  -2.51300    1.000000
    127 O     s    0.740873 *  0.564714 *  0.427468 *  -2.51300    1.000000
    128 O     s    0.708567 *  0.853181 *  0.600258 *  -2.51300    1.000000
    129 O     s    0.985110 *  0.103734 *  0.931260 *  -2.51300    1.000000
    130 O     s    0.432916 *  0.354902 *  0.773661 *  -2.51300    1.000000
    131 O     s    0.496384 *  0.180394 *  0.916103 *  -2.51300    1.000000
    132 O     s    0.938666 *  0.433346 *  0.760726 *  -2.51300    1.000000
    133 O     s    0.223941 *  0.210971 *  0.774698 *  -2.51300    1.000000
    134 O     s    0.194690 *  0.448907 *  0.927088 *  -2.51300    1.000000
    135 O     s    0.733601 *  0.092327 *  0.761151 *  -2.51300    1.000000
    136 O     s    0.709286 *  0.341398 *  0.909641 *  -2.51300    1.000000
    137 O     s    0.998326 *  0.597590 *  0.927016 *  -2.51300    1.000000
    138 O     s    0.427018 *  0.858397 *  0.760657 *  -2.51300    1.000000
    139 O     s    0.500480 *  0.672539 *  0.936549 *  -2.51300    1.000000
    140 O     s    0.920870 *  0.928290 *  0.758698 *  -2.51300    1.000000
    141 O     s    0.204311 *  0.692749 *  0.761990 *  -2.51300    1.000000
[...]
            z       0.0889     -0.0253     -1.9018
   51 O     x      -1.0760      0.1877     -0.1191
            y       0.1679     -1.0364      0.0356
            z      -0.0796      0.0362     -1.6322
   52 O     x      -1.7309     -0.4017      0.0182
            y      -0.3049     -1.5861     -0.0486
            z       0.0726     -0.0205     -1.7559
   53 O     x      -1.2639      0.0086      0.0541
            y       0.0845     -0.7007     -0.0934
            z       0.0696     -0.0860     -1.4409
   54 O     x      -1.5891      0.1354      0.0192
            y       0.0979     -1.1891      0.0654
            z       0.0253     -0.0340     -1.5952
   55 O     x      -1.3585      0.1622      0.1008
            y       0.0888     -1.1166      0.1225
            z       0.1527      0.1331     -1.2476
   56 O     x      -1.1058     -0.1564     -0.0642
            y      -0.0252     -0.5554      0.0103
            z      -0.0511      0.0144     -1.2152
   57 O     x      -1.0582     -0.1897      0.1034
            y      -0.1823     -1.1012      0.0984
            z       0.0643      0.0130     -1.4482
   58 O     x      -1.0512      0.2435     -0.0080
            y       0.2585     -0.9690      0.0675
            z      -0.0146      0.0194     -1.3072
   59 O     x      -1.3092      0.2137      0.0245
            y       0.2500     -1.1194     -0.1075
            z       0.0645     -0.1348     -1.5197
   60 O     x      -1.0134     -0.3019     -0.0499
            y      -0.3245     -1.0456      0.0099
            z      -0.0338      0.0200     -1.2543
   61 O     x      -1.3246     -0.1128      0.0867
            y       0.0188     -0.8506      0.0595
            z       0.0659      0.0010     -1.6011
   62 O     x      -1.6687     -0.0207      0.0194
            y      -0.1226     -1.2941      0.0295
            z       0.0035      0.1041     -1.8762
   63 O     x      -1.6525      0.2114      0.0340
            y       0.1063     -1.0535     -0.0023
            z      -0.0178     -0.1057     -1.8795
   64 O     x      -1.3516      0.0392      0.0711
            y       0.0954     -0.8383     -0.0448
            z       0.1041     -0.0946     -1.4310
   65 O     x      -1.3894     -0.2543      0.1213
            y      -0.3337     -1.1526      0.0404
            z       0.1237      0.0292     -1.5868
   66 O     x      -1.4126      0.1801      0.0308
            y       0.1855     -1.2115      0.0684
            z       0.0890      0.0307     -1.6205
   67 O     x      -1.1125      0.1883      0.0871
            y       0.1695     -1.0748     -0.0712
            z       0.0790     -0.0884     -1.7135
   68 O     x      -1.2241     -0.0685     -0.0162
            y      -0.1289     -1.1402     -0.0671
            z      -0.0211     -0.0622     -1.5645
   69 O     x      -1.3044     -0.0485     -0.0224
            y       0.0346     -0.7297      0.0741
            z      -0.0499      0.1148     -1.3690
   70 O     x      -1.4855      0.2825     -0.1221
            y       0.0667     -0.8224     -0.1170
            z      -0.0655     -0.1817     -1.1776
   71 O     x      -1.8193      0.3733      0.0546
            y       0.2214     -1.0163     -0.0396
            z       0.0625     -0.0901     -1.1721
   72 O     x      -1.3767     -0.2276     -0.0332
            y      -0.1008     -0.7979      0.0403
            z      -0.0261      0.0464     -1.2669
   73 O     x      -1.2370     -0.2584      0.3470
            y      -0.1499     -1.2103      0.2715
            z       0.2449      0.2479     -1.1534
   74 O     x      -1.2806      0.5505      0.0149
            y       0.5407     -1.2922     -0.0209
            z      -0.0315      0.0623     -1.4574
   75 O     x      -1.4455      0.4683      0.0993
            y       0.5782     -1.4531     -0.1391
            z       0.0676     -0.1193     -1.6750
   76 O     x      -1.1820     -0.3939      0.0732
            y      -0.3657     -1.1327     -0.0037
            z       0.0906     -0.0190     -1.2139
   77 O     x      -1.3380     -0.0818     -0.1118
            y       0.1009     -0.8518     -0.0250
            z      -0.1294      0.0684     -1.4119
   78 O     x      -1.7511      0.0380     -0.0190
            y      -0.0834     -1.2140      0.0190
            z      -0.0146     -0.0029     -1.9445
   79 O     x      -1.6400      0.2256     -0.0464
            y       0.1391     -1.1585     -0.0523
            z      -0.0471      0.0264     -1.7635
   80 O     x      -1.2643      0.0267     -0.0022
            y       0.1063     -0.9170     -0.0184
            z       0.0328     -0.0017     -1.2850
   81 O     x      -1.2418     -0.1877      0.0064
            y      -0.2523     -1.0155      0.0395
            z      -0.0181      0.0332     -1.6884
   82 O     x      -1.3297      0.1271     -0.0655
            y       0.1732     -1.2070      0.0682
            z      -0.1255      0.1694     -1.5401
   83 O     x      -1.1188      0.2084      0.0347
            y       0.1833     -1.1288      0.0176
            z       0.0101      0.0282     -1.6262
   84 O     x      -1.2450     -0.1050      0.0060
            y      -0.1748     -1.1268     -0.0224
            z       0.0209     -0.0455     -1.5276

  Elastic Constant Matrix: (Units=GPa)

  Indices      1         2         3         4         5         6
       1    384.7432  144.9048  174.0603   -5.1288  -10.8410   23.2813
       2    144.9048  301.6780  124.7810   -8.5891   11.9274    7.2392
       3    174.0603  124.7810  616.5518   -6.5688    1.8095    6.9643
       4     -5.1288   -8.5891   -6.5688   78.2103    7.3890   -0.2994
       5    -10.8410   11.9274    1.8095    7.3890  129.4500   -2.0722
       6     23.2813    7.2392    6.9643   -0.2994   -2.0722  118.1376

  Elastic Compliance Matrix: (Units=1/GPa)

  Indices      1         2         3         4         5         6
       1    0.003483 -0.001388 -0.000697 -0.000025  0.000422 -0.000553
       2   -0.001388  0.004199 -0.000453  0.000381 -0.000518  0.000035
       3   -0.000697 -0.000453  0.001911  0.000070 -0.000047  0.000052
       4   -0.000025  0.000381  0.000070  0.012905 -0.000775 -0.000003
       5    0.000422 -0.000518 -0.000047 -0.000775  0.007854  0.000087
       6   -0.000553  0.000035  0.000052 -0.000003  0.000087  0.008570

  Mechanical properties :

  Convention :                    Reuss         Voigt         Hill
  Bulk  Modulus (GPa)     =     221.45656     243.38502     232.42079
  Shear Modulus (GPa)     =     109.87839     122.44136     116.15987
  Velocity S-wave (km/s)  =       4.44104       4.68806       4.56622
  Velocity P-wave (km/s)  =       8.12699       8.54346       8.33783
  Compressibility (1/GPa) =    0.00451556
  Stress axis :                     x             y             z
  Youngs Moduli (GPa)     =     287.14245     238.12552     523.35708
  Poissons Ratio (x)      =                     0.33062       0.36501
  Poissons Ratio (y)      =       0.39868                     0.23695
  Poissons Ratio (z)      =       0.20026       0.10781

  Piezoelectric Strain Matrix: (Units=C/m**2)

  Indices      1         2         3         4         5         6
       x    -5.67023   1.21611  -0.57132  -0.29740  -2.53252   0.29546
       y    -2.25793   3.18776  -1.55002  -0.15739  -2.20032  -0.35112
       z    -4.79404   9.88108   2.47772   1.06477  -4.73753  -0.83810

  Piezoelectric Stress Matrix: (Units=10**-11 C/N)

  Indices      1         2         3         4         5         6
       x    -2.22616   1.44474   0.24249  -0.13131  -2.26307   0.54595
       y    -1.19387   1.82914  -0.27570   0.08379  -1.97227  -0.19215
       z    -3.37046   4.98608   0.38553   2.14723  -4.53653  -0.44761

  Static dielectric constant tensor :

              x         y         z
       x    11.59937  -0.38626   0.55345
       y    -0.38626   8.37764   1.58650
       z     0.55345   1.58650  19.71692

  High frequency dielectric constant tensor :

              x         y         z
       x     4.24999  -0.04291  -0.04309
       y    -0.04291   3.63920  -0.01758
       z    -0.04309  -0.01758   4.42972

  Static refractive indices :

    1 =    2.84598      2 =    3.41031      3 =    4.46813

  High frequency refractive indices :

    1 =    1.90674      2 =    2.06001      3 =    2.10704

  Phonon Calculation :

  Number of k points for this configuration =        1

  K point      1 =   0.000000  0.000000  0.000000  Weight =    1.000

  Frequencies (cm-1) [NB: Negative implies an imaginary mode]:

   -0.00    0.00    0.00   58.03   71.28   80.56   89.01   93.02   96.46
  105.00  113.24  115.75  119.48  121.01  127.93  130.09  132.64  134.35
  135.37  137.71  140.96  142.78  145.70  148.14  149.96  152.33  153.71
  159.07  160.83  164.83  166.24  167.70  168.77  171.54  176.06  177.05
  181.78  183.88  187.53  191.03  194.00  196.00  197.67  202.62  202.75
  204.40  206.48  208.29  209.89  211.62  213.49  216.77  218.71  220.86
  223.33  227.55  229.19  230.82  233.84  235.58  237.30  239.87  240.62
  243.70  244.85  245.70  246.99  250.51  251.27  252.62  255.56  255.96
  259.30  260.99  265.49  266.36  268.45  271.55  275.41  276.06  277.80
  278.61  282.77  288.20  290.15  291.35  293.41  294.97  298.96  301.84
  303.81  307.24  310.64  312.72  314.04  317.20  321.87  323.87  325.64
  327.65  331.50  333.48  336.56  340.11  343.13  345.28  346.32  349.56
  350.29  351.06  353.46  354.19  356.81  357.31  359.05  359.44  362.27
  363.34  363.95  367.87  369.74  370.17  371.98  372.62  374.60  376.33
  378.93  380.20  381.36  382.93  384.48  385.34  387.51  388.91  390.53
  394.13  394.63  396.60  399.67  400.84  403.96  405.55  407.33  410.57
  412.30  413.42  414.99  417.15  418.29  419.62  420.20  421.15  423.66
  424.92  427.41  428.06  429.24  430.76  432.90  434.94  437.15  438.29
  440.62  441.64  443.31  443.75  444.78  448.55  449.31  451.88  452.04
  452.85  454.60  456.46  458.26  460.17  461.10  464.25  467.00  470.23
  472.55  474.02  475.29  475.99  478.82  479.20  480.83  481.02  484.98
  487.38  489.79  491.69  493.58  496.63  498.44  502.78  503.92  504.91
  507.28  507.78  510.21  511.10  513.10  518.98  519.22  521.73  525.61
  529.09  531.72  534.45  536.48  536.86  541.70  542.85  544.42  549.68
  551.42  553.89  557.91  558.48  561.40  572.35  579.58  590.99  601.14
  602.68  609.24  611.53  612.56  617.39  620.89  622.86  633.58  636.24
  638.45  647.48  649.84  651.79  657.39  662.63  664.95  666.12  668.71
  672.77  680.74  685.79  691.91  696.15  698.82  702.92  721.15  736.06

  Phonon properties (per mole of unit cells): Temperature =      0.000 K
  Zero point energy             =        5.820291 eV

  Phonon density of states :

 Frequency (cm-1) Density of States
    0.00000 |***************                                               0.008
   11.50100 |                                                              0.000
   23.00200 |                                                              0.000
   34.50300 |                                                              0.000
   46.00399 |                                                              0.000
   57.50499 |*******                                                       0.004
   69.00599 |*******                                                       0.004
   80.50699 |***************                                               0.008
   92.00799 |***************                                               0.008
  103.50899 |***************                                               0.008
  115.00998 |**********************                                        0.012
  126.51098 |*********************************************                 0.024
  138.01198 |******************************                                0.016
  149.51298 |*************************************                         0.020
  161.01398 |*************************************                         0.020
  172.51498 |******************************                                0.016
  184.01597 |**********************                                        0.012
  195.51697 |*********************************************                 0.024
  207.01797 |*************************************                         0.020
  218.51897 |*************************************                         0.020
  230.01997 |*********************************************                 0.024
  241.52097 |****************************************************          0.028
  253.02196 |******************************                                0.016
  264.52296 |*************************************                         0.020
  276.02396 |******************************                                0.016
  287.52496 |*********************************************                 0.024
  299.02596 |**********************                                        0.012
  310.52696 |*************************************                         0.020
  322.02795 |*************************************                         0.020
  333.52895 |**********************                                        0.012
  345.02995 |****************************************************          0.028
  356.53095 |************************************************************  0.032
  368.03195 |****************************************************          0.028
  379.53295 |************************************************************  0.032
  391.03394 |*************************************                         0.020
  402.53494 |*********************************************                 0.024
  414.03594 |************************************************************  0.032
  425.53694 |*********************************************                 0.024
  437.03794 |****************************************************          0.028
  448.53894 |************************************************************  0.032
  460.03993 |*************************************                         0.020
  471.54093 |************************************************************  0.032
  483.04193 |*************************************                         0.020
  494.54293 |*************************************                         0.020
  506.04393 |*************************************                         0.020
  517.54493 |******************************                                0.016
  529.04592 |*************************************                         0.020
  540.54692 |*************************************                         0.020
  552.04792 |******************************                                0.016
  563.54892 |*******                                                       0.004
  575.04992 |*******                                                       0.004
  586.55092 |*******                                                       0.004
  598.05191 |**********************                                        0.012
  609.55291 |******************************                                0.016
  621.05391 |*******                                                       0.004
  632.55491 |**********************                                        0.012
  644.05591 |**********************                                        0.012
  655.55691 |******************************                                0.016
  667.05790 |***************                                               0.008
  678.55890 |***************                                               0.008
  690.05990 |**********************                                        0.012
  701.56090 |*******                                                       0.004
  713.06190 |*******                                                       0.004
  724.56290 |*******                                                       0.004

  Time to end of optimisation =       3.7666 seconds

  Timing analysis for GULP :

  Task / Subroutine                                          Time (Seconds)
  Calculation of reciprocal space energy and derivatives          0.2643
  Calculation of real space energy and derivatives                2.6877
  Calculation of phonons                                          0.7190
  Calculation and manipulation of Hessian matrix                  0.0026
  Calculation of matrix diagonalisation                           0.0115
  Calculation of matrix inversion                                 0.0666
  Global summation overhead                                       0.0349

  Dump file written as gulp.res
  CIF file written as cryst.cif

  Job Finished at 16:53.12 21st November   2023