  Job Started  at 19:04.26  8th September  2023

  Number of CPUs =     2

  Host name      = nid004766

  Total number of configurations input =      1

*  Input for Configuration =   1                                               *

  Formula = Tc4Mn20Li4O48

  Number of irreducible atoms/shells =     128

  Total number atoms/shells =     128

  Dimensionality = 3               :  Bulk

  Cartesian lattice vectors (Angstroms) :

        8.872874    0.000000    0.000000
        0.000000    9.432501    0.000000
        0.000000    0.000000    8.565761

  Cell parameters (Angstroms/Degrees):

  a =       8.8729    alpha =  90.0000
  b =       9.4325    beta  =  90.0000
  c =       8.5658    gamma =  90.0000

  Initial cell volume =         716.897611 Angs**3

  Temperature of configuration =   0.00     K

  Pressure of configuration =         0.000 GPa

  Fractional coordinates of asymmetric unit :

   No.  Atomic       x           y          z         Charge      Occupancy
        Label      (Frac)      (Frac)     (Frac)        (e)         (Frac)
      1 Tc    c    0.629638 *  0.228378 *  0.416282 *   1.97100    1.000000
      2 Tc    c    0.341752 *  0.241656 *  0.576011 *   1.97100    1.000000
      3 Tc    c    0.841209 *  0.974273 *  0.254966 *   1.97100    1.000000
      4 Tc    c    0.845566 *  0.017363 *  0.578245 *   1.97100    1.000000
      5 Mn    c    0.631145 *  0.237819 *  0.076672 *   4.00000    1.000000
      6 Mn    c    0.118503 *  0.515480 *  0.084353 *   4.00000    1.000000
      7 Mn    c    0.356886 *  0.204119 *  0.241572 *   4.00000    1.000000
      8 Mn    c    0.128801 *  0.010625 *  0.753086 *   4.00000    1.000000
      9 Mn    c    0.339300 *  0.251960 *  0.918336 *   4.00000    1.000000
     10 Mn    c    0.616473 *  0.729346 *  0.417919 *   4.00000    1.000000
     11 Mn    c    0.114644 *  0.508918 *  0.413079 *   4.00000    1.000000
     12 Mn    c    0.128093 *  0.998805 *  0.414147 *   4.00000    1.000000
     13 Mn    c    0.620036 *  0.735381 *  0.080636 *   4.00000    1.000000
     14 Mn    c    0.834163 *  0.484687 *  0.584942 *   4.00000    1.000000
     15 Mn    c    0.836201 *  0.492453 *  0.913558 *   4.00000    1.000000
     16 Mn    c    0.844615 *  0.994073 *  0.915134 *   4.00000    1.000000
     17 Mn    c    0.118528 *  0.501573 *  0.749585 *   4.00000    1.000000
     18 Mn    c    0.834081 *  0.495366 *  0.247362 *   4.00000    1.000000
     19 Mn    c    0.623152 *  0.237950 *  0.752653 *   4.00000    1.000000
     20 Mn    c    0.340330 *  0.755500 *  0.914327 *   4.00000    1.000000
     21 Mn    c    0.337750 *  0.753983 *  0.582734 *   4.00000    1.000000
     22 Mn    c    0.337987 *  0.753137 *  0.248536 *   4.00000    1.000000
     23 Mn    c    0.123005 *  0.986432 *  0.080156 *   4.00000    1.000000
     24 Mn    c    0.623813 *  0.748365 *  0.747798 *   4.00000    1.000000
     25 Li    c    0.448922 *  0.468387 *  0.253620 *   1.00000    1.000000
     26 Li    c    0.971544 *  0.229671 *  0.116002 *   1.00000    1.000000
     27 Li    c    0.975356 *  0.770397 *  0.588183 *   1.00000    1.000000
     28 Li    c    0.472765 *  0.506484 *  0.734845 *   1.00000    1.000000
     29 O     c    0.041577 *  0.089960 *  0.245895 *   0.51300    1.000000
     30 O     c    0.430002 *  0.335538 *  0.090977 *   0.51300    1.000000
     31 O     c    0.548702 *  0.122621 *  0.232310 *   0.51300    1.000000
     32 O     c    0.936037 *  0.406934 *  0.080126 *   0.51300    1.000000
     33 O     c    0.245949 *  0.145094 *  0.074925 *   0.51300    1.000000
     34 O     c    0.207730 *  0.415858 *  0.247283 *   0.51300    1.000000
     35 O     c    0.778788 *  0.107132 *  0.073159 *   0.51300    1.000000
     36 O     c    0.700961 *  0.353358 *  0.230581 *   0.51300    1.000000
     37 O     c    0.010928 *  0.609196 *  0.249785 *   0.51300    1.000000
     38 O     c    0.439019 *  0.844781 *  0.082392 *   0.51300    1.000000
     39 O     c    0.517329 *  0.640307 *  0.246902 *   0.51300    1.000000
     40 O     c    0.937017 *  0.886907 *  0.072134 *   0.51300    1.000000
     41 O     c    0.259222 *  0.653025 *  0.079381 *   0.51300    1.000000
     42 O     c    0.203304 *  0.891066 *  0.244876 *   0.51300    1.000000
     43 O     c    0.753694 *  0.592730 *  0.077613 *   0.51300    1.000000
     44 O     c    0.705117 *  0.817935 *  0.251443 *   0.51300    1.000000
     45 O     c    0.062363 *  0.111909 *  0.580065 *   0.51300    1.000000
     46 O     c    0.421559 *  0.329686 *  0.395106 *   0.51300    1.000000
     47 O     c    0.534601 *  0.141857 *  0.589142 *   0.51300    1.000000
     48 O     c    0.929846 *  0.397031 *  0.413841 *   0.51300    1.000000
     49 O     c    0.288004 *  0.109716 *  0.405271 *   0.51300    1.000000
     50 O     c    0.207402 *  0.417645 *  0.578965 *   0.51300    1.000000
     51 O     c    0.778145 *  0.103549 *  0.403330 *   0.51300    1.000000
     52 O     c    0.694487 *  0.351790 *  0.599037 *   0.51300    1.000000
     53 O     c    0.014524 *  0.595169 *  0.583421 *   0.51300    1.000000
     54 O     c    0.438021 *  0.843707 *  0.415563 *   0.51300    1.000000
     55 O     c    0.517852 *  0.641241 *  0.587392 *   0.51300    1.000000
     56 O     c    0.952095 *  0.892661 *  0.426131 *   0.51300    1.000000
     57 O     c    0.248548 *  0.656997 *  0.415702 *   0.51300    1.000000
     58 O     c    0.197255 *  0.890752 *  0.588524 *   0.51300    1.000000
     59 O     c    0.737116 *  0.575257 *  0.417627 *   0.51300    1.000000
     60 O     c    0.716659 *  0.826357 *  0.575603 *   0.51300    1.000000
     61 O     c    0.034283 *  0.100034 *  0.922239 *   0.51300    1.000000
     62 O     c    0.434556 *  0.339818 *  0.753887 *   0.51300    1.000000
     63 O     c    0.524941 *  0.146530 *  0.917785 *   0.51300    1.000000
     64 O     c    0.935618 *  0.395461 *  0.751032 *   0.51300    1.000000
     65 O     c    0.266321 *  0.144872 *  0.765268 *   0.51300    1.000000
     66 O     c    0.207091 *  0.405842 *  0.917930 *   0.51300    1.000000
     67 O     c    0.759813 *  0.100052 *  0.764249 *   0.51300    1.000000
     68 O     c    0.698693 *  0.352291 *  0.914394 *   0.51300    1.000000
     69 O     c    0.023022 *  0.601597 *  0.913282 *   0.51300    1.000000
     70 O     c    0.435521 *  0.850138 *  0.747700 *   0.51300    1.000000
     71 O     c    0.525915 *  0.645652 *  0.910787 *   0.51300    1.000000
     72 O     c    0.945249 *  0.907024 *  0.750569 *   0.51300    1.000000
     73 O     c    0.259296 *  0.646552 *  0.750469 *   0.51300    1.000000
     74 O     c    0.204849 *  0.894412 *  0.912244 *   0.51300    1.000000
     75 O     c    0.752352 *  0.595047 *  0.749393 *   0.51300    1.000000
     76 O     c    0.705902    0.844041    0.916685     0.51300    1.000000
     77 Tc    s    0.630647 *  0.232586 *  0.414850 *   1.02900    1.000000
     78 Tc    s    0.337302 *  0.241466 *  0.576713 *   1.02900    1.000000
     79 Tc    s    0.838412 *  0.973958 *  0.253500 *   1.02900    1.000000
     80 Tc    s    0.843919 *  0.016857 *  0.580733 *   1.02900    1.000000
     81 O     s    0.049650 *  0.067046 *  0.242436 *  -2.51300    1.000000
     82 O     s    0.426079 *  0.310145 *  0.089529 *  -2.51300    1.000000
     83 O     s    0.540613 *  0.153254 *  0.227186 *  -2.51300    1.000000
     84 O     s    0.933241 *  0.427081 *  0.080710 *  -2.51300    1.000000
     85 O     s    0.256890 *  0.146087 *  0.081212 *  -2.51300    1.000000
     86 O     s    0.190570 *  0.434060 *  0.246574 *  -2.51300    1.000000
     87 O     s    0.771997 *  0.106256 *  0.063097 *  -2.51300    1.000000
     88 O     s    0.707151 *  0.353173 *  0.222951 *  -2.51300    1.000000
     89 O     s    0.012884 *  0.578117 *  0.249540 *  -2.51300    1.000000
     90 O     s    0.435061 *  0.812585 *  0.081564 *  -2.51300    1.000000
     91 O     s    0.516148 *  0.659923 *  0.248515 *  -2.51300    1.000000
     92 O     s    0.937730 *  0.917299 *  0.069374 *  -2.51300    1.000000
     93 O     s    0.256720 *  0.655914 *  0.080080 *  -2.51300    1.000000
     94 O     s    0.208605 *  0.891273 *  0.240710 *  -2.51300    1.000000
     95 O     s    0.752353 *  0.590663 *  0.077425 *  -2.51300    1.000000
     96 O     s    0.694670 *  0.810454 *  0.250152 *  -2.51300    1.000000
     97 O     s    0.069567 *  0.082612 *  0.581749 *  -2.51300    1.000000
     98 O     s    0.418554 *  0.308006 *  0.388728 *  -2.51300    1.000000
     99 O     s    0.541013 *  0.169491 *  0.593268 *  -2.51300    1.000000
    100 O     s    0.924775 *  0.427032 *  0.415005 *  -2.51300    1.000000
    101 O     s    0.275076 *  0.115584 *  0.392480 *  -2.51300    1.000000
    102 O     s    0.193343 *  0.427956 *  0.581276 *  -2.51300    1.000000
    103 O     s    0.772933 *  0.096525 *  0.410333 *  -2.51300    1.000000
    104 O     s    0.704936 *  0.352456 *  0.606435 *  -2.51300    1.000000
    105 O     s    0.015053 *  0.577390 *  0.582185 *  -2.51300    1.000000
    106 O     s    0.432948 *  0.811142 *  0.415825 *  -2.51300    1.000000
    107 O     s    0.518293 *  0.665223 *  0.588189 *  -2.51300    1.000000
    108 O     s    0.957681 *  0.915091 *  0.427188 *  -2.51300    1.000000
    109 O     s    0.250839 *  0.659007 *  0.415184 *  -2.51300    1.000000
    110 O     s    0.204576 *  0.889952 *  0.587338 *  -2.51300    1.000000
    111 O     s    0.741690 *  0.578640 *  0.415662 *  -2.51300    1.000000
    112 O     s    0.700319 *  0.813501 *  0.579357 *  -2.51300    1.000000
    113 O     s    0.037264 *  0.071081 *  0.922550 *  -2.51300    1.000000
    114 O     s    0.434728 *  0.325891 *  0.760101 *  -2.51300    1.000000
    115 O     s    0.531059 *  0.178926 *  0.917988 *  -2.51300    1.000000
    116 O     s    0.932524 *  0.428118 *  0.750582 *  -2.51300    1.000000
    117 O     s    0.259447 *  0.146186 *  0.772931 *  -2.51300    1.000000
    118 O     s    0.204789 *  0.408300 *  0.914665 *  -2.51300    1.000000
    119 O     s    0.758551 *  0.098781 *  0.767603 *  -2.51300    1.000000
    120 O     s    0.703685 *  0.347984 *  0.915556 *  -2.51300    1.000000
    121 O     s    0.028422 *  0.570533 *  0.914792 *  -2.51300    1.000000
    122 O     s    0.432152 *  0.817816 *  0.748360 *  -2.51300    1.000000
    123 O     s    0.528702 *  0.672977 *  0.910123 *  -2.51300    1.000000
    124 O     s    0.945647 *  0.931179 *  0.753532 *  -2.51300    1.000000
    125 O     s    0.260184 *  0.650553 *  0.750432 *  -2.51300    1.000000
    126 O     s    0.208288 *  0.896682 *  0.916764 *  -2.51300    1.000000
    127 O     s    0.753309 *  0.591410 *  0.751238 *  -2.51300    1.000000
    128 O     s    0.702949 *  0.838528 *  0.913125 *  -2.51300    1.000000

  Brillouin zone sampling points :

  Point number          x          y          z            Weight
        1           0.000000   0.000000   0.000000     1.00000000

*  General input information                                                   *

  Species output for all configurations :

  Species    Type    Atomic    Atomic    Charge       Radii (Angs)     Library
[...]
            y      -0.2300     -0.8248      0.0244
            z       0.0268      0.0404     -1.3739
   42 O     x      -0.6430      0.1946      0.0062
            y       0.3653     -1.3552     -0.0037
            z      -0.0032      0.0064     -1.2923
   43 O     x      -1.0588      0.5506      0.0228
            y       0.2851     -0.8819     -0.0295
            z      -0.0141      0.0006     -1.0816
   44 O     x      -1.0418      0.4439     -0.0513
            y       0.3664     -0.7933     -0.0166
            z      -0.0216      0.0052     -0.4387
   45 O     x      -1.2557      0.0300     -0.0032
            y       0.1506     -0.8773     -0.0438
            z       0.0101     -0.0714     -1.0179
   46 O     x      -1.3838     -0.1444     -0.0173
            y      -0.2208     -0.8086      0.2422
            z      -0.0388      0.2519     -0.9375
   47 O     x      -1.4290     -0.0579      0.0599
            y      -0.1849     -0.7969      0.1435
            z       0.1153      0.1785     -1.0855
   48 O     x      -1.2760     -0.2854      0.0615
            y      -0.1949     -0.7060     -0.0889
            z       0.0953     -0.1085     -1.0218
   49 O     x      -0.9132     -0.3266     -0.1228
            y      -0.3398     -0.6948     -0.1458
            z      -0.0238     -0.1656     -1.1321
   50 O     x      -1.0268     -0.3766     -0.0064
            y      -0.3114     -0.7350     -0.0150
            z      -0.0293     -0.0051     -0.6285
   51 O     x      -1.4407      0.5780      0.0835
            y       0.4545     -1.1329      0.0038
            z       0.0235     -0.0554     -1.5708
   52 O     x      -0.7330     -0.0689      0.0551
            y      -0.2235     -1.1558      0.0136
            z       0.0558     -0.0154     -1.2207
   53 O     x      -1.2359     -0.3140     -0.1297
            y      -0.2416     -0.6046     -0.0005
            z      -0.1540      0.0056     -1.3603
   54 O     x      -1.1131      0.3366      0.0111
            y       0.3195     -0.7017     -0.0293
            z      -0.0267     -0.0327     -0.7265
   55 O     x      -1.1196      0.3067     -0.0295
            y       0.2450     -0.4888     -0.0015
            z      -0.0495     -0.0250     -1.2049
   56 O     x      -1.3175      0.2002      0.1150
            y       0.3471     -0.8459     -0.0248
            z       0.0330     -0.0295     -1.2784
   57 O     x      -1.0752     -0.5640     -0.0154
            y      -0.2970     -0.8964     -0.0658
            z      -0.0133     -0.1309     -1.4165
   58 O     x      -0.6295      0.2749      0.0197
            y       0.4015     -1.5074     -0.0663
            z       0.0144     -0.0674     -1.3293
   59 O     x      -1.1635      0.6809     -0.1369
            y       0.3263     -0.9254      0.0407
            z      -0.0689     -0.0205     -1.2130
   60 O     x      -1.0454      0.2446      0.0295
            y       0.2460     -0.6941      0.0114
            z      -0.0136      0.0062     -0.6990
   61 O     x      -0.9450      0.1538      0.0093
            y       0.2210     -0.7878     -0.0273
            z      -0.0060     -0.0445     -1.0555
   62 O     x      -1.4497     -0.1760     -0.0312
            y      -0.4119     -0.6689     -0.1346
            z      -0.0202     -0.1948     -0.9438
   63 O     x      -0.9788     -0.1534      0.0971
            y      -0.2654     -0.6892      0.0332
            z       0.0603      0.0733     -0.8775
   64 O     x      -0.9635     -0.1885      0.0173
            y      -0.1654     -0.5696      0.0591
            z       0.0046      0.0398     -0.8395
   65 O     x      -0.8460     -0.3307      0.1605
            y      -0.2695     -0.6680      0.1564
            z       0.1073      0.1869     -1.0913
   66 O     x      -1.0539     -0.2528      0.0527
            y      -0.2467     -0.7549      0.0222
            z       0.0283      0.0061     -0.8845
   67 O     x      -1.4575      0.6018      0.1710
            y       0.6081     -0.8754     -0.1513
            z       0.1777     -0.1571     -1.1409
   68 O     x      -0.8198     -0.2235     -0.0478
            y      -0.3749     -1.4223     -0.1526
            z      -0.0618     -0.0859     -0.9127
   69 O     x      -0.9985     -0.2262      0.0174
            y      -0.1956     -0.4190      0.0572
            z       0.0298      0.0441     -1.1558
   70 O     x      -1.0674      0.3057      0.0177
            y       0.2841     -0.6715      0.0125
            z      -0.0106      0.0364     -0.7478
   71 O     x      -1.2018      0.1755     -0.0510
            y       0.1708     -0.5982     -0.0140
            z      -0.0144     -0.0232     -1.5201
   72 O     x      -1.1871      0.3319     -0.1176
            y       0.4146     -0.6634      0.0856
            z      -0.0537      0.1252     -0.9817
   73 O     x      -1.0422     -0.5560     -0.0973
            y      -0.2837     -0.9085     -0.0146
            z      -0.0704      0.0383     -1.3486
   74 O     x      -0.7133      0.2709     -0.0259
            y       0.4127     -1.5778      0.0336
            z      -0.0100      0.0430     -1.1149
   75 O     x      -1.0318      0.5319      0.0529
            y       0.2719     -0.8783      0.0193
            z       0.0350      0.0347     -1.1653
   76 O     x      -1.0175      0.4057      0.0249
            y       0.3632     -0.7707      0.0102
            z       0.0281      0.0065     -0.4365

  Elastic Constant Matrix: (Units=GPa)

  Indices      1         2         3         4         5         6
       1    151.4721   72.3257   99.2416   -3.0204    1.8324   -7.8197
       2     72.3257   89.5923   44.8779    1.5757   -1.1402   -2.5754
       3     99.2416   44.8779  603.7752    3.2081   -2.6976   -5.7425
       4     -3.0204    1.5757    3.2081   74.0236    3.3732    1.1954
       5      1.8324   -1.1402   -2.6976    3.3732  112.7953    1.1421
       6     -7.8197   -2.5754   -5.7425    1.1954    1.1421   60.4957

  Elastic Compliance Matrix: (Units=1/GPa)

  Indices      1         2         3         4         5         6
       1    0.011705 -0.008803 -0.001265  0.000719 -0.000341  0.001010
       2   -0.008803  0.018229  0.000094 -0.000762  0.000356 -0.000345
       3   -0.001265  0.000094  0.001858 -0.000138  0.000070  0.000018
       4    0.000719 -0.000762 -0.000138  0.013584 -0.000427 -0.000213
       5   -0.000341  0.000356  0.000070 -0.000427  0.008891 -0.000182
       6    0.001010 -0.000345  0.000018 -0.000213 -0.000182  0.016655

  Mechanical properties :

  Convention :                    Reuss         Voigt         Hill
  Bulk  Modulus (GPa)     =      84.43038     141.97002     113.20020
  Shear Modulus (GPa)     =      52.73210      91.35587      72.04398
  Velocity S-wave (km/s)  =       3.51024       4.62028       4.10297
  Velocity P-wave (km/s)  =       6.01313       7.85089       6.99265
  Compressibility (1/GPa) =    0.01184408
  Stress axis :                     x             y             z
  Youngs Moduli (GPa)     =      85.43399      54.85739     538.08972
  Poissons Ratio (x)      =                     0.48292       0.68086
  Poissons Ratio (y)      =       0.75210                    -0.05079
  Poissons Ratio (z)      =       0.10810      -0.00518

  Piezoelectric Strain Matrix: (Units=C/m**2)

  Indices      1         2         3         4         5         6
       x     3.27542  -8.73940  -8.54204   1.54919   0.00148   3.16013
       y     2.21747   6.49142   9.31592  -0.47735   0.76568  -1.13891
       z     2.54043  -0.52626  -2.68183   2.08238   2.03985  -0.55885

  Piezoelectric Stress Matrix: (Units=10**-11 C/N)

  Indices      1         2         3         4         5         6
       x    13.03885 -19.12208  -2.09996   3.05605  -0.60463   5.84678
       y    -4.47330  10.07196   1.52183  -1.12027   0.94227  -1.88328
       z     3.79986  -3.28787  -0.84024   3.01316   1.61080  -0.74229

  Static dielectric constant tensor :

              x         y         z
       x    10.10707  -1.34845   0.19950
       y    -1.34845   6.44628  -0.14413
       z     0.19950  -0.14413   7.61229

  High frequency dielectric constant tensor :

              x         y         z
       x     3.49291  -0.03257  -0.00310
       y    -0.03257   3.02819  -0.00136
       z    -0.00310  -0.00136   3.44799

  Static refractive indices :

    1 =    2.44943      2 =    2.75630      3 =    3.25096

  High frequency refractive indices :

    1 =    1.73951      2 =    1.85683      3 =    1.86959

  Phonon Calculation :

  Number of k points for this configuration =        1

  K point      1 =   0.000000  0.000000  0.000000  Weight =    1.000

  Frequencies (cm-1) [NB: Negative implies an imaginary mode]:

   -0.00   -0.00   -0.00   41.51   66.31   85.33   94.60  100.85  104.88
  108.32  114.80  118.85  125.59  131.50  135.65  138.80  139.36  146.91
  149.56  153.55  159.03  163.09  165.46  166.28  167.61  171.94  174.01
  177.25  178.00  186.74  188.80  189.19  191.45  192.82  193.43  195.97
  198.11  201.00  202.91  205.94  210.77  213.13  215.50  220.48  222.49
  224.89  226.34  230.60  233.06  235.15  239.69  243.12  247.89  248.67
  252.25  252.55  255.45  258.23  260.60  263.44  265.15  267.72  270.49
  273.00  275.08  278.73  281.43  281.84  285.14  288.91  290.99  294.26
  300.77  302.22  303.95  308.44  309.61  312.89  315.42  326.77  329.78
  331.41  334.65  336.54  338.62  340.41  342.26  343.45  346.38  348.40
  351.38  359.60  362.16  364.70  365.45  369.10  372.68  378.34  380.01
  383.75  386.79  390.28  391.92  396.63  398.19  399.94  402.51  406.85
  408.88  409.07  413.46  416.09  417.50  419.82  422.40  425.76  426.95
  429.01  432.38  433.43  434.90  437.01  438.84  439.85  440.65  441.67
  443.85  446.60  446.96  450.04  452.80  454.14  454.51  456.36  458.44
  459.29  461.58  463.82  466.00  467.57  468.61  470.01  470.21  472.32
  473.31  474.19  474.77  478.19  480.08  484.05  486.67  488.07  489.04
  490.31  493.29  493.80  496.15  497.98  499.02  501.86  506.19  508.41
  509.95  511.81  512.89  516.10  521.13  525.29  528.35  530.23  532.39
  532.56  536.42  538.72  545.31  547.88  550.91  552.10  556.22  559.62
  560.55  562.25  564.65  567.97  568.96  571.71  572.89  576.79  576.97
  579.02  579.62  585.26  586.28  587.58  591.91  593.52  599.39  603.12
  607.13  608.89  612.11  621.91  626.87  629.05  631.54  635.93  639.16
  650.55  658.98  663.47  664.89  665.55  668.24  678.17  679.61  688.28
  692.84  694.46  705.93  712.21  716.96  719.90  722.16  730.78  736.13
  739.54  747.72  773.31

  Phonon properties (per mole of unit cells): Temperature =      0.000 K
  Zero point energy             =        5.677861 eV

  Phonon density of states :

 Frequency (cm-1) Density of States
    0.00000 |                                                              0.000
   12.08298 |                                                              0.000
   24.16597 |                                                              0.000
   36.24895 |*******                                                       0.004
   48.33194 |                                                              0.000
   60.41492 |*******                                                       0.004
   72.49790 |                                                              0.000
   84.58089 |***************                                               0.009
   96.66387 |**********************                                        0.013
  108.74685 |***************                                               0.009
  120.82984 |***************                                               0.009
  132.91282 |**********************                                        0.013
  144.99581 |**********************                                        0.013
  157.07879 |*************************************                         0.022
  169.16177 |******************************                                0.018
  181.24476 |*************************************                         0.022
  193.32774 |*************************************                         0.022
  205.41073 |******************************                                0.018
  217.49371 |******************************                                0.018
  229.57669 |******************************                                0.018
  241.65968 |*************************************                         0.022
  253.74266 |*************************************                         0.022
  265.82564 |******************************                                0.018
  277.90863 |*************************************                         0.022
  289.99161 |**********************                                        0.013
  302.07460 |*************************************                         0.022
  314.15758 |*******                                                       0.004
  326.24056 |*************************************                         0.022
  338.32355 |*********************************************                 0.027
  350.40653 |**********************                                        0.013
  362.48952 |******************************                                0.018
  374.57250 |**********************                                        0.013
  386.65548 |*************************************                         0.022
  398.73847 |*************************************                         0.022
  410.82145 |*************************************                         0.022
  422.90443 |*********************************************                 0.027
  434.98742 |************************************************************  0.036
  447.07040 |*********************************************                 0.027
  459.15339 |************************************************************  0.036
  471.23637 |*********************************************                 0.027
  483.31935 |****************************************************          0.031
  495.40234 |*************************************                         0.022
  507.48532 |*************************************                         0.022
  519.56831 |******************************                                0.018
  531.65129 |******************************                                0.018
  543.73427 |******************************                                0.018
  555.81726 |*************************************                         0.022
  567.90024 |************************************************************  0.036
  579.98322 |******************************                                0.018
  592.06621 |**********************                                        0.013
  604.14919 |**********************                                        0.013
  616.23218 |***************                                               0.009
  628.31516 |******************************                                0.018
  640.39814 |*******                                                       0.004
  652.48113 |***************                                               0.009
  664.56411 |**********************                                        0.013
  676.64710 |**********************                                        0.013
  688.73008 |***************                                               0.009
  700.81306 |***************                                               0.009
  712.89605 |**********************                                        0.013
  724.97903 |***************                                               0.009
  737.06201 |***************                                               0.009
  749.14500 |                                                              0.000
  761.22798 |*******                                                       0.004

  Time to end of optimisation =      14.3779 seconds

  Timing analysis for GULP :

  Task / Subroutine                                          Time (Seconds)
  Calculation of reciprocal space energy and derivatives          0.8069
  Calculation of real space energy and derivatives               10.6580
  Calculation of phonons                                          0.2690
  Calculation and manipulation of Hessian matrix                  0.0088
  Calculation of matrix diagonalisation                           0.0119
  Calculation of matrix inversion                                 0.2059
  Global summation overhead                                       0.0088

  Dump file written as gulp.res
  CIF file written as cryst.cif

  Job Finished at 19:04.41  8th September  2023